language ESSENCE' 1.0

letting jobs = 102
letting horizon = 795
letting resourcesRenew = 2
letting resourcesNonrenew = 2
letting resourceLimits = [25, 24, 168, 146]
letting successors = [[2, 3, 4, 5, 7, 19, 29], [15, 9, 8, 6], [25, 23, 20, 18, 17, 16, 14, 13], [23, 20, 18, 17, 14, 12, 9], [40, 25, 23, 20, 18, 14], [23, 18, 14, 11, 10], [25, 23, 22, 18, 17], [27, 20, 14], [40, 31, 28, 27, 26, 22, 21], [39, 31, 27, 24, 22, 21], [47, 36, 31, 30, 28, 26, 22], [43, 40, 37, 30, 28, 26, 21], [39, 30, 24, 22, 21], [47, 36, 30, 28, 26, 22], [47, 40, 36, 31, 28, 22], [39, 31, 30, 24, 21], [43, 39, 24, 21], [37, 30, 27, 21], [39, 31, 28, 21], [47, 36, 35, 33, 32, 31, 30, 26], [48, 47, 44, 41, 36, 35, 34, 33, 32], [48, 44, 43, 41, 37, 35, 34, 33], [48, 47, 43, 41, 32], [48, 28], [50, 48, 47, 42, 41, 35], [45, 44, 41, 39, 38], [50, 48, 47, 42, 35], [45, 41, 32], [56, 48, 44, 42, 36], [48, 45, 44, 38], [50, 48, 46, 44, 41], [58, 56, 50, 38], [50, 45, 38], [58, 45, 42], [60, 59, 58, 53, 52, 49, 46, 45], [60, 59, 58, 54, 52, 51, 50, 46], [60, 59, 57, 56, 52, 51, 50, 49], [51, 42], [56, 42], [56, 42], [60, 59, 57, 56, 52, 51, 49], [60, 59, 53, 52, 49, 46], [60, 58, 57, 54, 45], [68, 66, 59, 58, 57, 53], [65, 64, 61, 56, 51], [70, 69, 64, 63, 62, 61, 57, 55], [65, 62, 61, 60, 59, 54], [65, 58, 55, 53], [70, 65, 62, 61, 54], [73, 68, 61, 53], [76, 70, 69, 62, 55], [74, 73, 71, 70, 67, 66, 64, 63], [79, 74, 71, 70, 67, 64, 63, 62], [76, 74, 73, 68, 67, 66, 63], [84, 77, 74, 73, 71, 68, 67, 66], [78, 76, 71, 69, 68, 67, 63], [84, 79, 78, 71, 67, 65], [84, 78, 76, 61], [86, 73, 71, 70, 64], [84, 82, 80, 79, 77, 73, 67], [79, 77, 71, 67], [88, 86, 80, 78, 77, 75, 72], [101, 86, 84, 82, 77, 75, 72], [88, 84, 78, 77, 76, 75], [86, 81, 80, 77, 74, 73], [101, 100, 88, 85, 83, 80, 79, 78], [101, 88, 86, 75, 72], [100, 98, 96, 88, 87, 85, 82, 81, 80], [86, 82, 81, 73], [101, 99, 97, 87, 85, 83, 77], [100, 98, 90, 88, 83, 82, 80], [100, 98, 97, 95, 94, 87, 83, 81], [98, 97, 95, 91, 87, 85, 83], [100, 96, 91, 89, 88, 87, 82], [99, 96, 95, 93, 92, 91, 87, 85], [101, 96, 95, 85, 81], [100, 98, 96, 95, 94, 93, 92, 91, 90], [98, 95, 91, 90, 89, 82], [95, 87, 81], [97, 95, 93, 92, 91, 89], [93, 92, 91, 90, 89], [99, 97, 94], [96, 93, 89], [91, 90, 89], [94, 89], [92, 90], [90], [92], [102], [102], [102], [102], [102], [102], [102], [102], [102], [102], [102], [102], [102], []]
letting durations = [[0], [1, 7, 10], [4, 6, 8], [4, 5, 8], [7, 8, 9], [4, 8, 9], [3, 5, 5], [4, 6, 7], [4, 6, 8], [2, 3, 5], [1, 7, 9], [5, 8, 8], [2, 5, 8], [1, 3, 7], [1, 4, 9], [4, 5, 7], [3, 5, 7], [4, 8, 10], [2, 7, 8], [1, 5, 5], [1, 2, 6], [4, 8, 10], [8, 9, 10], [2, 6, 8], [3, 6, 10], [1, 2, 9], [1, 6, 7], [3, 4, 8], [4, 6, 7], [4, 5, 8], [3, 7, 8], [4, 8, 10], [3, 5, 9], [1, 7, 8], [4, 8, 10], [3, 9, 10], [3, 6, 8], [2, 7, 9], [1, 8, 10], [3, 3, 3], [3, 4, 8], [5, 9, 10], [6, 8, 8], [5, 6, 7], [4, 7, 8], [2, 5, 9], [4, 6, 8], [3, 5, 7], [7, 8, 9], [6, 7, 9], [4, 5, 8], [3, 6, 10], [1, 3, 5], [1, 2, 9], [6, 7, 10], [1, 2, 9], [2, 4, 5], [5, 8, 8], [2, 5, 9], [1, 5, 7], [1, 2, 6], [2, 3, 6], [1, 8, 9], [4, 8, 9], [2, 2, 6], [2, 3, 9], [3, 4, 7], [2, 6, 7], [1, 2, 10], [2, 5, 10], [1, 6, 10], [3, 4, 5], [4, 10, 10], [4, 5, 10], [1, 7, 8], [1, 4, 5], [6, 8, 10], [3, 4, 5], [3, 7, 9], [1, 5, 7], [3, 5, 6], [1, 2, 3], [5, 7, 10], [6, 7, 9], [3, 3, 10], [3, 5, 6], [1, 2, 5], [1, 8, 8], [5, 6, 10], [1, 5, 7], [4, 5, 8], [1, 7, 8], [2, 4, 5], [7, 8, 9], [3, 8, 9], [3, 8, 9], [4, 5, 7], [6, 6, 10], [3, 7, 8], [2, 6, 7], [2, 4, 5], [0]]
letting resourceUsage = [[[0, 0, 0, 0]], [[0, 2, 0, 3], [4, 0, 0, 1], [2, 0, 0, 1]], [[0, 3, 0, 5], [2, 0, 0, 4], [0, 1, 0, 3]], [[3, 0, 0, 8], [0, 1, 0, 7], [3, 0, 0, 5]], [[3, 0, 0, 7], [3, 0, 0, 5], [0, 3, 0, 3]], [[0, 4, 4, 0], [0, 2, 2, 0], [5, 0, 2, 0]], [[0, 3, 7, 0], [0, 3, 4, 0], [3, 0, 3, 0]], [[0, 3, 8, 0], [3, 0, 5, 0], [0, 1, 0, 6]], [[0, 5, 5, 0], [3, 0, 0, 2], [0, 3, 3, 0]], [[5, 0, 6, 0], [3, 0, 0, 6], [0, 3, 3, 0]], [[4, 0, 0, 9], [4, 0, 4, 0], [4, 0, 0, 7]], [[0, 2, 0, 2], [0, 1, 0, 2], [4, 0, 0, 2]], [[2, 0, 0, 7], [0, 3, 3, 0], [1, 0, 2, 0]], [[0, 3, 0, 3], [2, 0, 6, 0], [0, 2, 0, 1]], [[2, 0, 8, 0], [2, 0, 0, 3], [0, 2, 6, 0]], [[5, 0, 0, 4], [2, 0, 2, 0], [1, 0, 0, 1]], [[5, 0, 5, 0], [2, 0, 0, 3], [0, 1, 0, 3]], [[5, 0, 0, 3], [4, 0, 1, 0], [0, 1, 1, 0]], [[0, 3, 4, 0], [0, 3, 3, 0], [0, 3, 1, 0]], [[1, 0, 0, 8], [0, 2, 0, 7], [1, 0, 3, 0]], [[5, 0, 8, 0], [4, 0, 8, 0], [4, 0, 6, 0]], [[0, 5, 10, 0], [0, 5, 0, 6], [0, 5, 0, 3]], [[2, 0, 2, 0], [2, 0, 0, 6], [0, 2, 0, 5]], [[0, 4, 6, 0], [0, 2, 6, 0], [0, 2, 5, 0]], [[0, 3, 0, 4], [3, 0, 2, 0], [1, 0, 0, 3]], [[3, 0, 4, 0], [3, 0, 0, 7], [0, 2, 0, 7]], [[4, 0, 4, 0], [0, 3, 2, 0], [1, 0, 0, 6]], [[5, 0, 0, 2], [3, 0, 0, 2], [0, 1, 0, 2]], [[0, 5, 0, 1], [0, 3, 8, 0], [2, 0, 0, 1]], [[2, 0, 10, 0], [2, 0, 9, 0], [2, 0, 8, 0]], [[0, 4, 0, 10], [0, 4, 0, 7], [3, 0, 0, 6]], [[3, 0, 0, 9], [0, 3, 0, 8], [3, 0, 0, 8]], [[4, 0, 0, 8], [4, 0, 2, 0], [0, 3, 0, 5]], [[2, 0, 10, 0], [2, 0, 0, 4], [0, 4, 5, 0]], [[3, 0, 4, 0], [0, 3, 2, 0], [1, 0, 0, 3]], [[3, 0, 9, 0], [0, 3, 0, 2], [0, 3, 7, 0]], [[0, 3, 0, 9], [0, 1, 3, 0], [0, 1, 0, 5]], [[0, 2, 0, 9], [4, 0, 0, 4], [0, 1, 3, 0]], [[4, 0, 3, 0], [3, 0, 1, 0], [0, 2, 1, 0]], [[0, 3, 9, 0], [0, 3, 0, 1], [4, 0, 0, 1]], [[2, 0, 3, 0], [2, 0, 0, 3], [2, 0, 1, 0]], [[3, 0, 0, 6], [0, 2, 0, 5], [0, 2, 0, 3]], [[0, 1, 6, 0], [0, 1, 4, 0], [0, 1, 0, 1]], [[0, 5, 0, 5], [4, 0, 0, 3], [3, 0, 0, 1]], [[0, 5, 0, 6], [0, 4, 6, 0], [0, 4, 0, 5]], [[0, 5, 2, 0], [5, 0, 0, 3], [0, 5, 1, 0]], [[0, 1, 7, 0], [2, 0, 6, 0], [2, 0, 3, 0]], [[3, 0, 9, 0], [3, 0, 0, 3], [2, 0, 7, 0]], [[5, 0, 7, 0], [3, 0, 7, 0], [0, 3, 6, 0]], [[0, 4, 7, 0], [0, 2, 6, 0], [0, 1, 4, 0]], [[4, 0, 0, 8], [0, 1, 0, 6], [2, 0, 2, 0]], [[0, 4, 7, 0], [0, 4, 5, 0], [0, 2, 4, 0]], [[4, 0, 9, 0], [0, 1, 7, 0], [3, 0, 7, 0]], [[2, 0, 0, 4], [0, 4, 5, 0], [1, 0, 4, 0]], [[0, 4, 0, 2], [0, 4, 0, 1], [3, 0, 2, 0]], [[0, 2, 0, 7], [0, 1, 0, 6], [1, 0, 0, 5]], [[3, 0, 7, 0], [0, 5, 5, 0], [2, 0, 2, 0]], [[4, 0, 4, 0], [2, 0, 4, 0], [0, 4, 0, 1]], [[3, 0, 0, 5], [0, 1, 0, 3], [0, 1, 5, 0]], [[4, 0, 0, 6], [0, 2, 3, 0], [0, 2, 0, 6]], [[0, 4, 0, 8], [0, 2, 0, 5], [4, 0, 0, 1]], [[4, 0, 3, 0], [2, 0, 2, 0], [2, 0, 1, 0]], [[2, 0, 7, 0], [1, 0, 0, 5], [1, 0, 0, 1]], [[0, 3, 0, 6], [2, 0, 7, 0], [0, 2, 7, 0]], [[0, 4, 10, 0], [0, 3, 0, 4], [5, 0, 5, 0]], [[2, 0, 1, 0], [0, 4, 0, 5], [2, 0, 0, 3]], [[2, 0, 0, 5], [0, 4, 1, 0], [0, 3, 0, 1]], [[3, 0, 0, 10], [3, 0, 0, 7], [2, 0, 0, 3]], [[4, 0, 8, 0], [0, 1, 8, 0], [0, 1, 0, 2]], [[0, 4, 0, 9], [0, 3, 0, 7], [2, 0, 0, 6]], [[0, 2, 10, 0], [0, 1, 9, 0], [3, 0, 0, 1]], [[2, 0, 8, 0], [0, 1, 0, 2], [2, 0, 0, 2]], [[0, 5, 10, 0], [3, 0, 9, 0], [3, 0, 0, 4]], [[2, 0, 7, 0], [0, 4, 4, 0], [1, 0, 0, 9]], [[0, 3, 1, 0], [3, 0, 0, 5], [3, 0, 0, 4]], [[0, 1, 0, 4], [3, 0, 3, 0], [0, 1, 2, 0]], [[4, 0, 0, 9], [3, 0, 3, 0], [0, 2, 0, 3]], [[4, 0, 0, 10], [3, 0, 4, 0], [0, 3, 2, 0]], [[3, 0, 4, 0], [1, 0, 2, 0], [0, 3, 2, 0]], [[5, 0, 0, 2], [0, 2, 0, 1], [3, 0, 0, 1]], [[0, 2, 6, 0], [0, 1, 5, 0], [0, 1, 4, 0]], [[0, 4, 0, 7], [3, 0, 0, 6], [2, 0, 0, 5]], [[4, 0, 7, 0], [0, 3, 7, 0], [0, 3, 4, 0]], [[0, 4, 0, 5], [0, 4, 0, 2], [3, 0, 3, 0]], [[3, 0, 0, 9], [1, 0, 1, 0], [0, 2, 0, 6]], [[0, 3, 0, 6], [0, 2, 0, 5], [3, 0, 5, 0]], [[0, 4, 8, 0], [0, 3, 7, 0], [3, 0, 0, 1]], [[0, 3, 0, 7], [0, 2, 5, 0], [2, 0, 3, 0]], [[0, 3, 3, 0], [2, 0, 0, 8], [1, 0, 1, 0]], [[3, 0, 8, 0], [2, 0, 8, 0], [2, 0, 7, 0]], [[0, 2, 0, 2], [0, 2, 0, 1], [0, 2, 4, 0]], [[5, 0, 0, 7], [3, 0, 0, 6], [1, 0, 0, 5]], [[3, 0, 7, 0], [0, 2, 7, 0], [2, 0, 4, 0]], [[3, 0, 0, 5], [3, 0, 0, 2], [0, 3, 3, 0]], [[0, 5, 0, 9], [0, 2, 1, 0], [3, 0, 0, 6]], [[0, 3, 0, 6], [3, 0, 0, 5], [0, 3, 5, 0]], [[0, 3, 8, 0], [1, 0, 7, 0], [0, 2, 0, 1]], [[0, 5, 0, 7], [0, 5, 5, 0], [1, 0, 3, 0]], [[2, 0, 3, 0], [0, 4, 0, 8], [0, 4, 1, 0]], [[0, 3, 8, 0], [0, 3, 7, 0], [0, 3, 6, 0]], [[0, 2, 0, 2], [0, 1, 0, 1], [0, 1, 4, 0]], [[0, 0, 0, 0]]]
